n_res = 4;
rcap = [26, 30, 113, 114];
rtype = [1, 1, 2, 2];
n_tasks = 18;
modes = [ {1, 2, 3}, {4, 5, 6}, {7, 8, 9}, {10, 11, 12}, {13, 14, 15}, {16, 17, 18}, {19, 20, 21}, {22, 23, 24}, {25, 26, 27}, {28, 29, 30}, {31, 32, 33}, {34, 35, 36}, {37, 38, 39}, {40, 41, 42}, {43, 44, 45}, {46, 47, 48}, {49, 50, 51}, {52, 53, 54} ];
succ = [ {11, 17, 18}, {9, 16}, {4, 5, 9}, {10, 11, 14}, {6}, {7, 17}, {8, 12, 14}, {10, 11}, {17, 18}, {13, 15}, {13}, {13, 15}, {16}, {15, 16}, {18}, {}, {}, {} ];
n_opt = 54;
dur = [3, 5, 6, 6, 8, 10, 2, 7, 7, 1, 5, 7, 5, 7, 10, 5, 7, 8, 1, 2, 8, 1, 6, 9, 2, 5, 9, 2, 5, 10, 2, 3, 6, 1, 2, 5, 5, 5, 7, 3, 5, 8, 4, 5, 10, 7, 8, 9, 2, 3, 9, 4, 8, 8];
rreq = [|  8,  8,  5,  2,  2,  2, 10,  8,  9,  8,  8,  7,  8,  6,  5,  7,  3,  3,  5,  4,  2,  6,  6,  6,  8,  7,  5,  8,  7,  5,  3,  2,  1,  5,  5,  4,  6,  5,  1,  6,  5,  4,  2,  2,  2,  5,  5,  5,  6,  5,  3, 10,  8,  7
        |  7,  6,  1,  7,  4,  3,  4,  3,  4,  8,  5,  2,  5,  4,  1,  7,  5,  2, 10,  9,  9,  8,  4,  2,  4,  4,  3,  1,  1,  1,  7,  6,  6,  5,  2,  1,  5,  3,  3,  8,  6,  3,  7,  6,  6,  5,  4,  2,  9,  9,  9,  3,  2,  3
        |  3,  3,  3,  8,  7,  5,  6,  5,  4,  3,  3,  3,  4,  3,  2,  5,  5,  3,  4,  4,  4,  4,  4,  4,  9,  7,  5,  7,  6,  6,  4,  4,  4,  8,  6,  4,  9,  9,  5,  9,  9,  8,  8,  7,  4, 10,  9,  8,  4,  4,  3,  8,  7,  8
        |  9,  9,  9, 10,  5,  5,  8,  4,  4,  4,  3,  1,  6,  6,  5,  7,  6,  6,  4,  4,  3,  9,  8,  7,  2,  1,  1,  7,  6,  3,  7,  7,  5, 10,  9,  9,  2,  3,  1,  7,  6,  6,  2,  1,  1,  8,  6,  4,  3,  3,  2,  8,  6,  7 |];
